(declare-const |y':59:76| Int)
(declare-const havoc Int)
(declare-const |x':60:77| Int)
(declare-const |K:73:74| Int)
(declare-const |c':61:75| Int)
(assert (and (not (= (ite (<= (+ havoc -256) 0) 1 0) 0))
               (or (not (and (<= (- |K:73:74|) 0) (<= |K:73:74| 0)))
                     (= (+ |c':61:75| (- |K:73:74|)) 0))
               (or (not (<= (+ (- |K:73:74|) 1) 0))
                     (= (+ |c':61:75| (- |K:73:74|)) 0))
               (or (not (and (<= (- |K:73:74|) 0) (<= |K:73:74| 0)))
                     (= (+ |y':59:76| (- |K:73:74|)) 0))
               (or (not (<= (+ (- |K:73:74|) 1) 0))
                     (= (+ |y':59:76| (- |K:73:74|)) 0))
               (or (not (and (<= (- |K:73:74|) 0) (<= |K:73:74| 0)))
                     (= (+ (* 30 |x':60:77|)
                             (* -6
                                  (* |K:73:74|
                                       (* (* |K:73:74| |K:73:74|)
                                            (* |K:73:74| |K:73:74|))))
                             (* -15
                                  (* (* |K:73:74| |K:73:74|)
                                       (* |K:73:74| |K:73:74|)))
                             (* -10 (* |K:73:74| (* |K:73:74| |K:73:74|)))
                             |K:73:74|) 0))
               (or (not (and (<= (+ (- |K:73:74|) 1) 0)
                               (<= (+ |K:73:74| -1) 0)))
                     (= (+ (* 30 |x':60:77|)
                             (* -6
                                  (* |K:73:74|
                                       (* (* |K:73:74| |K:73:74|)
                                            (* |K:73:74| |K:73:74|))))
                             (* -15
                                  (* (* |K:73:74| |K:73:74|)
                                       (* |K:73:74| |K:73:74|)))
                             (* -10 (* |K:73:74| (* |K:73:74| |K:73:74|)))
                             |K:73:74|) 0))
               (or (not (and (<= (+ (- |K:73:74|) 2) 0)
                               (<= (+ |K:73:74| -2) 0)))
                     (= (+ (* 30 |x':60:77|)
                             (* -6
                                  (* |K:73:74|
                                       (* (* |K:73:74| |K:73:74|)
                                            (* |K:73:74| |K:73:74|))))
                             (* -15
                                  (* (* |K:73:74| |K:73:74|)
                                       (* |K:73:74| |K:73:74|)))
                             (* -10 (* |K:73:74| (* |K:73:74| |K:73:74|)))
                             |K:73:74|) 0))
               (or (not (and (<= (+ (- |K:73:74|) 3) 0)
                               (<= (+ |K:73:74| -3) 0)))
                     (= (+ (* 30 |x':60:77|)
                             (* -6
                                  (* |K:73:74|
                                       (* (* |K:73:74| |K:73:74|)
                                            (* |K:73:74| |K:73:74|))))
                             (* -15
                                  (* (* |K:73:74| |K:73:74|)
                                       (* |K:73:74| |K:73:74|)))
                             (* -10 (* |K:73:74| (* |K:73:74| |K:73:74|)))
                             |K:73:74|) 0))
               (or (not (and (<= (+ (- |K:73:74|) 4) 0)
                               (<= (+ |K:73:74| -4) 0)))
                     (= (+ (* 30 |x':60:77|)
                             (* -6
                                  (* |K:73:74|
                                       (* (* |K:73:74| |K:73:74|)
                                            (* |K:73:74| |K:73:74|))))
                             (* -15
                                  (* (* |K:73:74| |K:73:74|)
                                       (* |K:73:74| |K:73:74|)))
                             (* -10 (* |K:73:74| (* |K:73:74| |K:73:74|)))
                             |K:73:74|) 0))
               (or (not (and (<= (+ (- |K:73:74|) 5) 0)
                               (<= (+ |K:73:74| -5) 0)))
                     (= (+ (* 30 |x':60:77|)
                             (* -6
                                  (* |K:73:74|
                                       (* (* |K:73:74| |K:73:74|)
                                            (* |K:73:74| |K:73:74|))))
                             (* -15
                                  (* (* |K:73:74| |K:73:74|)
                                       (* |K:73:74| |K:73:74|)))
                             (* -10 (* |K:73:74| (* |K:73:74| |K:73:74|)))
                             |K:73:74|) 0))
               (or (not (<= (+ (- |K:73:74|) 6) 0))
                     (= (+ (* 30 |x':60:77|)
                             (* -6
                                  (* |K:73:74|
                                       (* (* |K:73:74| |K:73:74|)
                                            (* |K:73:74| |K:73:74|))))
                             (* -15
                                  (* (* |K:73:74| |K:73:74|)
                                       (* |K:73:74| |K:73:74|)))
                             (* -10 (* |K:73:74| (* |K:73:74| |K:73:74|)))
                             |K:73:74|) 0))
               (or (not (and (<= (- |K:73:74|) 0) (<= |K:73:74| 0)))
                     (<= (+ (* 30 |x':60:77|)
                              (* -6
                                   (* |K:73:74|
                                        (* (* |K:73:74| |K:73:74|)
                                             (* |K:73:74| |K:73:74|))))
                              (* -15
                                   (* (* |K:73:74| |K:73:74|)
                                        (* |K:73:74| |K:73:74|)))
                              (* -10 (* |K:73:74| (* |K:73:74| |K:73:74|)))
                              |K:73:74|) 0))
               (or (not (and (<= (+ (- |K:73:74|) 1) 0)
                               (<= (+ |K:73:74| -1) 0)))
                     (<= (+ (* 30 |x':60:77|)
                              (* -6
                                   (* |K:73:74|
                                        (* (* |K:73:74| |K:73:74|)
                                             (* |K:73:74| |K:73:74|))))
                              (* -15
                                   (* (* |K:73:74| |K:73:74|)
                                        (* |K:73:74| |K:73:74|)))
                              (* -10 (* |K:73:74| (* |K:73:74| |K:73:74|)))
                              |K:73:74|) 0))
               (or (not (and (<= (+ (- |K:73:74|) 2) 0)
                               (<= (+ |K:73:74| -2) 0)))
                     (<= (+ (* 30 |x':60:77|)
                              (* -6
                                   (* |K:73:74|
                                        (* (* |K:73:74| |K:73:74|)
                                             (* |K:73:74| |K:73:74|))))
                              (* -15
                                   (* (* |K:73:74| |K:73:74|)
                                        (* |K:73:74| |K:73:74|)))
                              (* -10 (* |K:73:74| (* |K:73:74| |K:73:74|)))
                              |K:73:74|) 0))
               (or (not (and (<= (+ (- |K:73:74|) 3) 0)
                               (<= (+ |K:73:74| -3) 0)))
                     (<= (+ (* 30 |x':60:77|)
                              (* -6
                                   (* |K:73:74|
                                        (* (* |K:73:74| |K:73:74|)
                                             (* |K:73:74| |K:73:74|))))
                              (* -15
                                   (* (* |K:73:74| |K:73:74|)
                                        (* |K:73:74| |K:73:74|)))
                              (* -10 (* |K:73:74| (* |K:73:74| |K:73:74|)))
                              |K:73:74|) 0))
               (or (not (<= (+ (- |K:73:74|) 4) 0))
                     (<= (+ (* 30 |x':60:77|)
                              (* -6
                                   (* |K:73:74|
                                        (* (* |K:73:74| |K:73:74|)
                                             (* |K:73:74| |K:73:74|))))
                              (* -15
                                   (* (* |K:73:74| |K:73:74|)
                                        (* |K:73:74| |K:73:74|)))
                              (* -10 (* |K:73:74| (* |K:73:74| |K:73:74|)))
                              |K:73:74|) 0))
               (or (not (and (<= (- |K:73:74|) 0) (<= |K:73:74| 0)))
                     (<= (+ (* -30 |x':60:77|)
                              (* 6
                                   (* |K:73:74|
                                        (* (* |K:73:74| |K:73:74|)
                                             (* |K:73:74| |K:73:74|))))
                              (* -15
                                   (* (* |K:73:74| |K:73:74|)
                                        (* |K:73:74| |K:73:74|)))
                              (* 70 (* |K:73:74| (* |K:73:74| |K:73:74|)))
                              (* -30 (* |K:73:74| |K:73:74|)) (- |K:73:74|)) 0))
               (or (not (and (<= (+ (- |K:73:74|) 1) 0)
                               (<= (+ |K:73:74| -1) 0)))
                     (<= (+ (* -30 |x':60:77|)
                              (* 6
                                   (* |K:73:74|
                                        (* (* |K:73:74| |K:73:74|)
                                             (* |K:73:74| |K:73:74|))))
                              (* -15
                                   (* (* |K:73:74| |K:73:74|)
                                        (* |K:73:74| |K:73:74|)))
                              (* 70 (* |K:73:74| (* |K:73:74| |K:73:74|)))
                              (* -30 (* |K:73:74| |K:73:74|)) (- |K:73:74|)) 0))
               (or (not (and (<= (+ (- |K:73:74|) 2) 0)
                               (<= (+ |K:73:74| -2) 0)))
                     (<= (+ (* -30 |x':60:77|)
                              (* 6
                                   (* |K:73:74|
                                        (* (* |K:73:74| |K:73:74|)
                                             (* |K:73:74| |K:73:74|))))
                              (* -15
                                   (* (* |K:73:74| |K:73:74|)
                                        (* |K:73:74| |K:73:74|)))
                              (* 70 (* |K:73:74| (* |K:73:74| |K:73:74|)))
                              (* -30 (* |K:73:74| |K:73:74|)) (- |K:73:74|)) 0))
               (or (not (and (<= (+ (- |K:73:74|) 3) 0)
                               (<= (+ |K:73:74| -3) 0)))
                     (<= (+ (* -30 |x':60:77|)
                              (* 6
                                   (* |K:73:74|
                                        (* (* |K:73:74| |K:73:74|)
                                             (* |K:73:74| |K:73:74|))))
                              (* -15
                                   (* (* |K:73:74| |K:73:74|)
                                        (* |K:73:74| |K:73:74|)))
                              (* 70 (* |K:73:74| (* |K:73:74| |K:73:74|)))
                              (* -30 (* |K:73:74| |K:73:74|)) (- |K:73:74|)) 0))
               (or (not (<= (+ (- |K:73:74|) 4) 0))
                     (<= (+ (* -30 |x':60:77|)
                              (* 6
                                   (* |K:73:74|
                                        (* (* |K:73:74| |K:73:74|)
                                             (* |K:73:74| |K:73:74|))))
                              (* -15
                                   (* (* |K:73:74| |K:73:74|)
                                        (* |K:73:74| |K:73:74|)))
                              (* 70 (* |K:73:74| (* |K:73:74| |K:73:74|)))
                              (* -30 (* |K:73:74| |K:73:74|)) (- |K:73:74|)) 0))
               (or (and (= |K:73:74| 0) (= (- |c':61:75|) 0)
                          (= (- |x':60:77|) 0) (= (- |y':59:76|) 0))
                     (and (<= (+ (- |K:73:74|) 1) 0) (<= (+ (- havoc) 1) 0)
                            (= (+ (- |y':59:76|) |c':61:75|) 0)
                            (= (+ (* -30 |x':60:77|)
                                    (* 6
                                         (* |y':59:76|
                                              (* (* |y':59:76| |y':59:76|)
                                                   (* |y':59:76| |y':59:76|))))
                                    (* 15
                                         (* (* |y':59:76| |y':59:76|)
                                              (* |y':59:76| |y':59:76|)))
                                    (* 10
                                         (* |y':59:76|
                                              (* |y':59:76| |y':59:76|)))
                                    (- |y':59:76|)) 0)
                            (<= (+ (* -30 |x':60:77|)
                                     (* 6
                                          (* |y':59:76|
                                               (* (* |y':59:76| |y':59:76|)
                                                    (* |y':59:76| |y':59:76|))))
                                     (* 15
                                          (* (* |y':59:76| |y':59:76|)
                                               (* |y':59:76| |y':59:76|)))
                                     (* -120
                                          (* |y':59:76|
                                               (* |y':59:76| |y':59:76|)))
                                     (* 390 (* |y':59:76| |y':59:76|))
                                     (* -391 |y':59:76|) 130) 0)
                            (<= (+ |y':59:76| (- havoc)) 0)
                            (<= (+ (- (* |y':59:76|
                                           (* (* |y':59:76| |y':59:76|)
                                                (* |y':59:76| |y':59:76|))))
                                     (* 5
                                          (* (* |y':59:76| |y':59:76|)
                                               (* |y':59:76| |y':59:76|)))
                                     (* -10
                                          (* |y':59:76|
                                               (* |y':59:76| |y':59:76|)))
                                     (* 10 (* |y':59:76| |y':59:76|))
                                     (* -5 |y':59:76|) 1) 0)
                            (<= (+ (- (* (* |y':59:76| |y':59:76|)
                                           (* |y':59:76| |y':59:76|)))
                                     (* 4
                                          (* |y':59:76|
                                               (* |y':59:76| |y':59:76|)))
                                     (* -6 (* |y':59:76| |y':59:76|))
                                     (* 4 |y':59:76|) -1) 0)
                            (<= (+ (- (* (* |y':59:76| |y':59:76|)
                                           (* |y':59:76| |y':59:76|)))
                                     (* 4
                                          (* |y':59:76|
                                               (* |y':59:76| |y':59:76|)))
                                     (* -6 (* |y':59:76| |y':59:76|))
                                     (* 4 |y':59:76|) -1) 0)
                            (<= (+ (- (* |y':59:76|
                                           (* (* |y':59:76| |y':59:76|)
                                                (* |y':59:76| |y':59:76|))))
                                     (* 5
                                          (* (* |y':59:76| |y':59:76|)
                                               (* |y':59:76| |y':59:76|)))
                                     (* -10
                                          (* |y':59:76|
                                               (* |y':59:76| |y':59:76|)))
                                     (* 10 (* |y':59:76| |y':59:76|))
                                     (* -5 |y':59:76|) 1) 0)
                            (<= (+ (- (* |y':59:76|
                                           (* (* |y':59:76| |y':59:76|)
                                                (* |y':59:76| |y':59:76|))))
                                     (* 5
                                          (* (* |y':59:76| |y':59:76|)
                                               (* |y':59:76| |y':59:76|)))
                                     (* -10
                                          (* |y':59:76|
                                               (* |y':59:76| |y':59:76|)))
                                     (* 10 (* |y':59:76| |y':59:76|))
                                     (* -5 |y':59:76|) 1) 0)
                            (<= (+ (- (* (* |y':59:76| |y':59:76|)
                                           (* |y':59:76| |y':59:76|)))
                                     (* 4
                                          (* |y':59:76|
                                               (* |y':59:76| |y':59:76|)))
                                     (* -6 (* |y':59:76| |y':59:76|))
                                     (* 4 |y':59:76|) -1) 0)
                            (<= (+ (- (* |y':59:76| |y':59:76|))
                                     (* 2 |y':59:76|) -1) 0)
                            (<= (+ (- |y':59:76|) 1) 0)
                            (<= (+ (* 30 |x':60:77|)
                                     (* -6
                                          (* |y':59:76|
                                               (* (* |y':59:76| |y':59:76|)
                                                    (* |y':59:76| |y':59:76|))))
                                     (* -15
                                          (* (* |y':59:76| |y':59:76|)
                                               (* |y':59:76| |y':59:76|)))
                                     (* -10
                                          (* |y':59:76|
                                               (* |y':59:76| |y':59:76|)))
                                     |y':59:76|) 0))) (<= (- |K:73:74|) 0)
               (<= (- |c':61:75|) 0) (<= (- |y':59:76|) 0)
               (= (+ (- |y':59:76|) |c':61:75|) 0)
               (= (+ (* -30 |x':60:77|)
                       (* 6
                            (* |y':59:76|
                                 (* (* |y':59:76| |y':59:76|)
                                      (* |y':59:76| |y':59:76|))))
                       (* 15
                            (* (* |y':59:76| |y':59:76|)
                                 (* |y':59:76| |y':59:76|)))
                       (* 10 (* |y':59:76| (* |y':59:76| |y':59:76|)))
                       (- |y':59:76|)) 0) (<= (+ (- |c':61:75|) havoc) 0)
               (not (= (+ (* -30 |x':60:77|)
                            (* 6
                                 (* |y':59:76|
                                      (* (* |y':59:76| |y':59:76|)
                                           (* |y':59:76| |y':59:76|))))
                            (* 15
                                 (* (* |y':59:76| |y':59:76|)
                                      (* |y':59:76| |y':59:76|)))
                            (* 10 (* |y':59:76| (* |y':59:76| |y':59:76|)))
                            (- |y':59:76|)) 0))))
(check-sat)
